c not original file ! May have been modified for weighted vertex coloring problem (edges and vertices stay the same only weights may have been moved to an other file)
p edge 36 156
e 1 2
e 1 3
e 1 11
e 1 14
e 1 17
e 1 21
e 1 28
e 1 34
e 2 3
e 2 8
e 2 12
e 2 15
e 2 18
e 2 32
e 2 35
e 3 9
e 3 13
e 3 16
e 3 19
e 3 25
e 3 36
e 4 5
e 4 6
e 4 7
e 4 8
e 4 9
e 4 10
e 4 20
e 4 27
e 5 6
e 5 7
e 5 8
e 5 9
e 5 10
e 5 22
e 5 29
e 6 7
e 6 8
e 6 9
e 6 10
e 6 23
e 6 30
e 7 8
e 7 9
e 7 10
e 7 24
e 7 31
e 8 9
e 8 10
e 8 12
e 8 15
e 8 18
e 8 32
e 8 35
e 9 10
e 9 13
e 9 16
e 9 19
e 9 25
e 9 36
e 10 26
e 10 33
e 11 12
e 11 13
e 11 14
e 11 17
e 11 21
e 11 28
e 11 34
e 12 13
e 12 15
e 12 18
e 12 32
e 12 35
e 13 16
e 13 19
e 13 25
e 13 36
e 14 15
e 14 16
e 14 17
e 14 21
e 14 28
e 14 34
e 15 16
e 15 18
e 15 32
e 15 35
e 16 19
e 16 25
e 16 36
e 17 18
e 17 19
e 17 21
e 17 28
e 17 34
e 18 19
e 18 32
e 18 35
e 19 25
e 19 36
e 20 21
e 20 22
e 20 23
e 20 24
e 20 25
e 20 26
e 20 27
e 21 22
e 21 23
e 21 24
e 21 25
e 21 26
e 21 28
e 21 34
e 22 23
e 22 24
e 22 25
e 22 26
e 22 29
e 23 24
e 23 25
e 23 26
e 23 30
e 24 25
e 24 26
e 24 31
e 25 26
e 25 36
e 26 33
e 27 28
e 27 29
e 27 30
e 27 31
e 27 32
e 27 33
e 28 29
e 28 30
e 28 31
e 28 32
e 28 33
e 28 34
e 29 30
e 29 31
e 29 32
e 29 33
e 30 31
e 30 32
e 30 33
e 31 32
e 31 33
e 32 33
e 32 35
e 34 35
e 34 36
e 35 36
